Minimize
  x_cargo_planes + x_ultrawide_trucks
Subject To
  c1: 10 x_cargo_planes + 6 x_ultrawide_trucks >= 200
  c2: 1000 x_cargo_planes + 700 x_ultrawide_trucks <= 22000
  c3: x_cargo_planes - x_ultrawide_trucks <= 0
End